c *********************************
c * Circuit generated by BenCGen
c *
c * ArrayMultiplier_4
c *
c * Ports with 1 gate(s): 3
c * Ports with 2 gate(s): 77
c * Total gates: 80
c *********************************
p cnf 88 261
1 18 0
-1 -18 0
1 -17 0
18 -17 0
-1 -18 17 0
1 -19 0
5 -19 0
-1 -5 19 0
2 -20 0
5 -20 0
-2 -5 20 0
3 -21 0
5 -21 0
-3 -5 21 0
4 -22 0
5 -22 0
-4 -5 22 0
1 -23 0
6 -23 0
-1 -6 23 0
2 -24 0
6 -24 0
-2 -6 24 0
3 -25 0
6 -25 0
-3 -6 25 0
4 -26 0
6 -26 0
-4 -6 26 0
1 -27 0
7 -27 0
-1 -7 27 0
2 -28 0
7 -28 0
-2 -7 28 0
3 -29 0
7 -29 0
-3 -7 29 0
4 -30 0
7 -30 0
-4 -7 30 0
1 -31 0
8 -31 0
-1 -8 31 0
2 -32 0
8 -32 0
-2 -8 32 0
3 -33 0
8 -33 0
-3 -8 33 0
4 -34 0
8 -34 0
-4 -8 34 0
19 -9 0
-19 9 0
20 23 -39 0
-20 23 39 0
20 -23 39 0
-20 -23 -39 0
39 17 -10 0
-39 17 10 0
39 -17 10 0
-39 -17 -10 0
17 -40 0
39 -40 0
-17 -39 40 0
23 -41 0
20 -41 0
-23 -20 41 0
-40 38 0
-41 38 0
40 41 -38 0
21 24 -43 0
-21 24 43 0
21 -24 43 0
-21 -24 -43 0
43 38 -35 0
-43 38 35 0
43 -38 35 0
-43 -38 -35 0
38 -44 0
43 -44 0
-38 -43 44 0
24 -45 0
21 -45 0
-24 -21 45 0
-44 42 0
-45 42 0
44 45 -42 0
22 25 -47 0
-22 25 47 0
22 -25 47 0
-22 -25 -47 0
47 42 -36 0
-47 42 36 0
47 -42 36 0
-47 -42 -36 0
42 -48 0
47 -48 0
-42 -47 48 0
25 -49 0
22 -49 0
-25 -22 49 0
-48 46 0
-49 46 0
48 49 -46 0
17 26 -51 0
-17 26 51 0
17 -26 51 0
-17 -26 -51 0
51 46 -37 0
-51 46 37 0
51 -46 37 0
-51 -46 -37 0
46 -52 0
51 -52 0
-46 -51 52 0
26 -53 0
17 -53 0
-26 -17 53 0
-52 50 0
-53 50 0
52 53 -50 0
35 27 -58 0
-35 27 58 0
35 -27 58 0
-35 -27 -58 0
58 17 -11 0
-58 17 11 0
58 -17 11 0
-58 -17 -11 0
17 -59 0
58 -59 0
-17 -58 59 0
27 -60 0
35 -60 0
-27 -35 60 0
-59 57 0
-60 57 0
59 60 -57 0
36 28 -62 0
-36 28 62 0
36 -28 62 0
-36 -28 -62 0
62 57 -54 0
-62 57 54 0
62 -57 54 0
-62 -57 -54 0
57 -63 0
62 -63 0
-57 -62 63 0
28 -64 0
36 -64 0
-28 -36 64 0
-63 61 0
-64 61 0
63 64 -61 0
37 29 -66 0
-37 29 66 0
37 -29 66 0
-37 -29 -66 0
66 61 -55 0
-66 61 55 0
66 -61 55 0
-66 -61 -55 0
61 -67 0
66 -67 0
-61 -66 67 0
29 -68 0
37 -68 0
-29 -37 68 0
-67 65 0
-68 65 0
67 68 -65 0
17 30 -70 0
-17 30 70 0
17 -30 70 0
-17 -30 -70 0
70 65 -56 0
-70 65 56 0
70 -65 56 0
-70 -65 -56 0
65 -71 0
70 -71 0
-65 -70 71 0
30 -72 0
17 -72 0
-30 -17 72 0
-71 69 0
-72 69 0
71 72 -69 0
54 31 -74 0
-54 31 74 0
54 -31 74 0
-54 -31 -74 0
74 17 -12 0
-74 17 12 0
74 -17 12 0
-74 -17 -12 0
17 -75 0
74 -75 0
-17 -74 75 0
31 -76 0
54 -76 0
-31 -54 76 0
-75 73 0
-76 73 0
75 76 -73 0
55 32 -78 0
-55 32 78 0
55 -32 78 0
-55 -32 -78 0
78 73 -13 0
-78 73 13 0
78 -73 13 0
-78 -73 -13 0
73 -79 0
78 -79 0
-73 -78 79 0
32 -80 0
55 -80 0
-32 -55 80 0
-79 77 0
-80 77 0
79 80 -77 0
56 33 -82 0
-56 33 82 0
56 -33 82 0
-56 -33 -82 0
82 77 -14 0
-82 77 14 0
82 -77 14 0
-82 -77 -14 0
77 -83 0
82 -83 0
-77 -82 83 0
33 -84 0
56 -84 0
-33 -56 84 0
-83 81 0
-84 81 0
83 84 -81 0
17 34 -86 0
-17 34 86 0
17 -34 86 0
-17 -34 -86 0
86 81 -15 0
-86 81 15 0
86 -81 15 0
-86 -81 -15 0
81 -87 0
86 -87 0
-81 -86 87 0
34 -88 0
17 -88 0
-34 -17 88 0
-87 85 0
-88 85 0
87 88 -85 0
85 -16 0
-85 16 0
